
2 3
1 2 0
1 3 0
<<<END-OF-RESPONSE>>>

"""

import sys
import re
import os
import random
import string
import math
import itertools
import collections
import bisect
import heapq
import time
import datetime
import calendar
import statistics
import functools
import operator

# import numpy as np
# import scipy as sp
# import scipy.misc
# import scipy.special
# import scipy.stats
# import scipy.linalg
# import scipy.interpolate
# import scipy.optimize
# import scipy.signal
# import scipy.fftpack